195
0 131 175 32 168 171 19 140 55 57 
33 160 30 13 162 60 143 107 86 166 
172 193 179 125 185 117 70 159 147 114 
21 23 154 18 170 145 34 141 181 76 
99 134 180 115 135 184 45 73 27 61 
38 133 132 16 174 110 26 84 31 11 
37 165 87 46 97 102 9 176 178 153 
72 94 89 194 158 152 1 156 67 14 
80 20 56 163 5 10 29 6 191 39 
64 44 121 105 187 3 28 54 108 22 
100 118 65 17 190 92 142 69 71 62 
51 183 182 77 149 104 12 157 177 109 
164 138 123 96 155 42 161 150 95 35 
48 167 192 129 7 103 144 63 15 122 
81 169 93 68 111 139 74 66 78 128 
85 113 119 4 112 173 116 50 91 189 
75 151 24 106 25 47 98 40 148 186 
8 82 79 58 126 124 90 2 41 43 
101 120 52 188 88 146 36 130 53 83 
49 59 137 127 136 
